sing20150322.12
TTAA  72121 48698
99008 23807 04503 00080 24626 01008 92766 23024 35005
85501 19030 30510 70144 10041 28016 50588 05160 01013
40759 15557 34516 30971 29548 17010 25098 40159 11014
20247 51756 08006 15427 66149 30507 10661 84135 13031
88999
77999=
TTCC  7212/ 48698=
TTDD  7212/ 48698
11977 85148 22962 85532 33945 84325 44933 83736 55918
83756 66867 84546 77830 85749 88810 84357 99798 83548
11767 76757 22729 78748 33708 78528
21212 11973 13526 22934 11017 33917 10517 44901 10518
55868 09517 66850 09516 77785 04503 88774 05507 99762
00507 11750 34014 22736 35010 33722 01505 44708 15007=
